42
raw_data/rcpsp/DC2-npv75.xlsx rcpspdc402
Time limit set to 60 seconds
Running CP solver
/home/omastto1/General-Optimization-Solver/src/solvers/rcpsp.py:31(stream:95:6): Warning: Cumulative expression 'pulse': height is zero, expression is zero everywhere.
                                                                                            VarCumulAtom_238 = pulse("0", 0)
/home/omastto1/General-Optimization-Solver/src/solvers/rcpsp.py:31(stream:95:1215): Warning: Cumulative expression 'pulse': height is zero, expression is zero everywhere.
                                                                                               VarCumulAtom_314 = pulse("76", 0)
/home/omastto1/General-Optimization-Solver/src/solvers/rcpsp.py:31(stream:96:6): Warning: Cumulative expression 'pulse': height is zero, expression is zero everywhere.
                                                                                            VarCumulAtom_318 = pulse("0", 0)
/home/omastto1/General-Optimization-Solver/src/solvers/rcpsp.py:31(stream:96:1213): Warning: Cumulative expression 'pulse': height is zero, expression is zero everywhere.
                                                                                               VarCumulAtom_394 = pulse("76", 0)
/home/omastto1/General-Optimization-Solver/src/solvers/rcpsp.py:31(stream:97:6): Warning: Cumulative expression 'pulse': height is zero, expression is zero everywhere.
                                                                                            VarCumulAtom_398 = pulse("0", 0)
/home/omastto1/General-Optimization-Solver/src/solvers/rcpsp.py:31(stream:97:1213): Warning: Cumulative expression 'pulse': height is zero, expression is zero everywhere.
                                                                                               VarCumulAtom_474 = pulse("76", 0)
/home/omastto1/General-Optimization-Solver/src/solvers/rcpsp.py:31(stream:98:6): Warning: Cumulative expression 'pulse': height is zero, expression is zero everywhere.
                                                                                            VarCumulAtom_478 = pulse("0", 0)
/home/omastto1/General-Optimization-Solver/src/solvers/rcpsp.py:31(stream:98:1217): Warning: Cumulative expression 'pulse': height is zero, expression is zero everywhere.
                                                                                               VarCumulAtom_554 = pulse("76", 0)
 ! --------------------------------------------------- CP Optimizer 20.1.0.0 --
 ! Minimization problem - 78 variables, 481 constraints
 ! TimeLimit            = 60
 ! Workers              = 14
 ! LogVerbosity         = Terse
 ! Initial process time : 0.00s (0.00s extraction + 0.00s propagation)
 !  . Log search space  : 502.5 (before), 502.5 (after)
 !  . Memory usage      : 898.6 kB (before), 898.6 kB (after)
 ! Using parallel search with 14 workers.
 ! ----------------------------------------------------------------------------
 !          Best Branches  Non-fixed    W       Branch decision
                        0         78                 -
 + New bound is 32
 ! Using iterative diving.
 ! Using temporal relaxation.
 *           328      157  0.99s        1      (gap is 90.24%)
 *           324      313  0.99s        1      (gap is 90.12%)
 *           317      469  0.99s        1      (gap is 89.91%)
 *           312     1479  0.99s        1      (gap is 89.74%)
 *           303     1557  0.99s        1      (gap is 89.44%)
 *           301     1844  0.99s        1      (gap is 89.37%)
             301     4664          4    1            -
 + New bound is 210 (gap is 30.23%)
 *           294     1572  0.99s        3      (gap is 28.57%)
 *           291     3735  0.99s        3      (gap is 27.84%)
 ! Using failure-directed search.
 *           289     8947  1.94s        3      (gap is 27.34%)
 *           288    16254  2.86s        8      (gap is 27.08%)
 *           287    15459  3.81s       10      (gap is 26.83%)
 *           285    14651  4.75s        5      (gap is 26.32%)
 *           283    14869  4.75s        5      (gap is 25.80%)
 *           282    20951  5.73s       10      (gap is 25.53%)
 *           280    23338  5.73s       10      (gap is 25.00%)
 *           279    35002  9.53s        4      (gap is 24.73%)
 *           278     147k  13.34s      13      (gap is 24.46%)
 *           277    50875  18.17s       4      (gap is 24.19%)
 ! Time = 18.17s, Average fail depth = 45, Memory usage = 13.5 MB
 ! Current bound is 210 (gap is 24.19%)
 !          Best Branches  Non-fixed    W       Branch decision
 ! ----------------------------------------------------------------------------
 ! Search terminated by limit, 18 solutions found.
 ! Best objective         : 277 (gap is 24.19%)
 ! Best bound             : 210
 ! ----------------------------------------------------------------------------
 ! Number of branches     : 4374529
 ! Number of fails        : 787868
 ! Total memory usage     : 13.7 MB (13.5 MB CP Optimizer + 0.1 MB Concert)
 ! Time spent in solve    : 60.02s (60.02s engine + 0.00s extraction)
 ! Search speed (br. / s) : 72896.7
 ! ----------------------------------------------------------------------------
(210,)
(0.241877,)
(277,)
Objective value: 277
Solution is 3.4 % worse than the lower bound.
Feasible solution found
